2142.64 0
0 54 42 38 34 37 46 32 49 59 53 0
0 15 11 17 26 20 0
0 8 6 9 2 10 95 4 7 16 21 27 0
0 1 98 94 88 91 96 90 92 18 0
0 80 76 79 77 78 56 43 45 35 57 55 52 0
0 58 30 67 28 41 39 40 33 31 36 47 48 63 62 0
0 99 89 93 97 23 12 0
0 13 85 81 82 83 60 29 44 68 25 0
0 24 75 74 73 14 22 0
0 61 51 69 71 72 70 19 0
0 3 5 100 86 84 87 50 66 65 64 0